2436.0
2230.0
2398.0
2790.0
2541.0
2441.0
2613.0
2536.0
2681.0
2514.0
2655.0
2241.0
2464.0
2800.0
2267.0
2668.0
2567.0
2611.0
2338.0
2361.0
2660.0
2844.0
2409.0
2686.0
2492.0
2536.0
2544.0
2386.0
2857.0
2883.0
